70
1227
10
67
16
41
89
7
23
34
90
16
5
0 1
0 3
0 4
0 5
0 13
0 16
0 17
0 22
0 23
0 24
0 25
0 26
0 30
0 31
0 33
0 34
0 36
0 37
0 38
0 39
0 46
0 48
0 49
0 50
0 51
0 53
0 54
0 55
0 56
0 57
0 58
0 61
0 62
0 63
0 65
0 67
0 68
1 5
1 7
1 8
1 10
1 11
1 12
1 13
1 16
1 17
1 18
1 21
1 22
1 24
1 25
1 26
1 27
1 28
1 29
1 32
1 33
1 34
1 35
1 40
1 43
1 49
1 50
1 52
1 53
1 54
1 55
1 56
1 58
1 60
1 61
1 63
1 64
1 67
1 68
1 69
2 3
2 5
2 6
2 7
2 11
2 16
2 17
2 18
2 19
2 20
2 21
2 24
2 25
2 26
2 29
2 31
2 35
2 36
2 38
2 45
2 47
2 51
2 58
2 63
2 65
2 66
2 67
2 68
3 4
3 8
3 9
3 10
3 11
3 14
3 15
3 16
3 21
3 24
3 25
3 26
3 27
3 28
3 29
3 32
3 33
3 34
3 35
3 36
3 38
3 40
3 41
3 43
3 47
3 48
3 49
3 54
3 57
3 58
3 60
3 61
3 63
3 64
3 65
3 67
3 68
3 69
4 8
4 11
4 12
4 14
4 16
4 23
4 25
4 32
4 33
4 38
4 41
4 43
4 46
4 48
4 50
4 52
4 53
4 55
4 56
4 57
4 62
4 64
4 66
4 67
4 68
4 69
5 7
5 11
5 12
5 17
5 18
5 19
5 22
5 23
5 25
5 26
5 27
5 35
5 36
5 37
5 38
5 40
5 41
5 45
5 48
5 49
5 51
5 52
5 55
5 59
5 60
5 61
5 63
5 68
5 69
6 7
6 13
6 15
6 17
6 18
6 19
6 20
6 21
6 24
6 25
6 29
6 30
6 32
6 33
6 34
6 37
6 39
6 41
6 44
6 45
6 46
6 48
6 49
6 50
6 51
6 52
6 53
6 58
6 59
6 60
6 61
6 62
6 64
6 65
6 66
6 69
7 15
7 16
7 17
7 18
7 19
7 20
7 21
7 22
7 23
7 25
7 27
7 29
7 31
7 33
7 35
7 36
7 38
7 39
7 40
7 42
7 45
7 48
7 49
7 56
7 58
7 60
7 61
7 63
7 64
7 67
7 68
8 9
8 11
8 12
8 14
8 15
8 16
8 18
8 19
8 21
8 22
8 23
8 25
8 26
8 27
8 28
8 30
8 34
8 35
8 36
8 38
8 39
8 41
8 46
8 48
8 49
8 51
8 52
8 55
8 57
8 61
8 62
8 65
8 67
8 68
8 69
9 12
9 13
9 14
9 16
9 18
9 20
9 23
9 24
9 26
9 27
9 28
9 29
9 30
9 40
9 43
9 47
9 48
9 49
9 53
9 54
9 55
9 56
9 59
9 63
9 64
9 67
9 68
10 13
10 14
10 15
10 20
10 21
10 27
10 28
10 29
10 33
10 34
10 35
10 36
10 39
10 40
10 42
10 43
10 47
10 50
10 51
10 52
10 55
10 56
10 62
10 63
10 64
10 67
10 68
10 69
11 13
11 14
11 15
11 16
11 18
11 19
11 20
11 21
11 23
11 26
11 27
11 33
11 35
11 37
11 38
11 39
11 41
11 42
11 43
11 44
11 45
11 47
11 49
11 50
11 51
11 56
11 60
11 62
11 63
11 66
11 67
12 13
12 17
12 22
12 25
12 27
12 28
12 29
12 30
12 31
12 32
12 33
12 34
12 35
12 36
12 38
12 39
12 40
12 41
12 42
12 43
12 45
12 51
12 54
12 55
12 56
12 57
12 59
12 60
12 62
12 68
13 14
13 17
13 18
13 19
13 21
13 22
13 23
13 24
13 27
13 28
13 32
13 35
13 38
13 42
13 43
13 44
13 45
13 46
13 47
13 48
13 49
13 54
13 55
13 57
13 58
13 60
13 61
13 62
13 64
13 67
14 17
14 18
14 19
14 20
14 23
14 25
14 29
14 31
14 33
14 35
14 36
14 38
14 43
14 44
14 45
14 46
14 47
14 48
14 50
14 51
14 52
14 57
14 59
14 60
14 61
14 65
14 66
14 69
15 16
15 18
15 24
15 27
15 28
15 30
15 31
15 35
15 36
15 37
15 39
15 44
15 45
15 46
15 47
15 48
15 49
15 50
15 52
15 56
15 57
15 60
15 61
15 63
15 64
15 65
15 67
15 68
16 17
16 18
16 19
16 21
16 23
16 24
16 26
16 27
16 32
16 33
16 34
16 37
16 38
16 41
16 42
16 45
16 47
16 48
16 50
16 51
16 52
16 55
16 58
16 61
16 64
16 65
16 66
16 67
17 19
17 23
17 24
17 25
17 26
17 27
17 28
17 29
17 30
17 31
17 34
17 36
17 39
17 41
17 42
17 43
17 47
17 48
17 51
17 52
17 53
17 60
17 61
17 63
17 64
17 65
17 69
18 23
18 24
18 28
18 29
18 30
18 31
18 32
18 34
18 38
18 46
18 48
18 49
18 52
18 53
18 54
18 57
18 58
18 59
18 61
18 62
18 63
18 64
18 67
18 68
19 20
19 21
19 22
19 23
19 26
19 27
19 28
19 29
19 30
19 31
19 33
19 37
19 42
19 44
19 47
19 48
19 49
19 50
19 51
19 52
19 53
19 54
19 56
19 59
19 61
19 66
19 68
19 69
20 21
20 23
20 24
20 25
20 26
20 28
20 32
20 33
20 35
20 39
20 40
20 41
20 43
20 45
20 47
20 49
20 50
20 51
20 52
20 54
20 56
20 57
20 59
20 62
20 67
21 22
21 24
21 25
21 26
21 29
21 31
21 32
21 38
21 39
21 41
21 42
21 43
21 44
21 45
21 47
21 54
21 55
21 56
21 59
21 62
21 63
21 66
21 67
21 68
22 24
22 25
22 26
22 27
22 29
22 34
22 36
22 38
22 42
22 46
22 48
22 50
22 51
22 52
22 53
22 55
22 62
22 64
22 67
22 69
23 24
23 26
23 28
23 29
23 31
23 33
23 34
23 36
23 40
23 43
23 44
23 45
23 47
23 50
23 53
23 55
23 56
23 60
23 64
23 65
23 66
23 68
24 27
24 28
24 29
24 33
24 36
24 37
24 38
24 39
24 40
24 42
24 44
24 47
24 48
24 49
24 50
24 51
24 54
24 56
24 57
24 58
24 60
24 64
24 68
24 69
25 26
25 27
25 31
25 32
25 33
25 35
25 37
25 38
25 41
25 42
25 43
25 45
25 47
25 49
25 51
25 52
25 53
25 55
25 57
25 60
25 62
25 63
25 65
25 67
26 28
26 31
26 32
26 34
26 35
26 36
26 37
26 38
26 39
26 40
26 41
26 46
26 47
26 48
26 50
26 51
26 53
26 54
26 57
26 59
26 62
26 63
26 64
26 66
26 69
27 30
27 32
27 34
27 35
27 36
27 37
27 40
27 41
27 43
27 44
27 45
27 46
27 48
27 49
27 51
27 56
27 58
27 59
27 61
27 64
27 65
27 67
28 30
28 31
28 36
28 37
28 38
28 41
28 44
28 46
28 47
28 49
28 50
28 54
28 56
28 57
28 59
28 61
28 64
28 65
28 67
28 68
29 31
29 32
29 35
29 41
29 42
29 43
29 44
29 45
29 47
29 49
29 50
29 52
29 53
29 55
29 56
29 60
29 62
29 65
29 66
30 32
30 33
30 38
30 39
30 40
30 42
30 43
30 44
30 46
30 47
30 49
30 52
30 56
30 57
30 58
30 63
30 65
30 68
30 69
31 36
31 42
31 43
31 44
31 45
31 47
31 52
31 54
31 57
31 61
31 62
31 63
31 66
31 67
31 68
32 35
32 37
32 38
32 44
32 46
32 47
32 49
32 50
32 54
32 56
32 57
32 58
32 61
32 63
32 64
32 65
32 66
32 68
33 34
33 35
33 37
33 39
33 41
33 43
33 46
33 48
33 51
33 54
33 55
33 57
33 58
33 60
33 61
33 66
33 69
34 38
34 44
34 47
34 51
34 52
34 55
34 56
34 58
34 62
34 66
34 69
35 36
35 37
35 39
35 40
35 41
35 42
35 47
35 48
35 50
35 52
35 53
35 54
35 55
35 56
35 57
35 59
35 60
35 61
35 63
35 67
35 69
36 37
36 39
36 40
36 42
36 45
36 47
36 48
36 49
36 50
36 52
36 53
36 55
36 56
36 57
36 59
36 60
36 61
36 62
36 63
36 65
36 67
36 68
37 41
37 42
37 43
37 45
37 46
37 47
37 48
37 49
37 50
37 53
37 54
37 57
37 59
37 61
37 62
37 67
38 39
38 40
38 41
38 43
38 44
38 45
38 48
38 49
38 50
38 52
38 56
38 57
38 58
38 59
38 61
38 63
38 64
38 65
38 68
39 41
39 46
39 47
39 48
39 50
39 51
39 52
39 53
39 55
39 56
39 58
39 60
39 61
39 63
39 64
39 65
40 41
40 42
40 45
40 49
40 51
40 52
40 53
40 59
40 61
40 62
40 63
40 66
41 42
41 44
41 47
41 48
41 49
41 50
41 51
41 52
41 53
41 54
41 55
41 57
41 59
41 61
41 62
41 64
41 66
41 69
42 43
42 44
42 46
42 47
42 51
42 52
42 53
42 54
42 56
42 58
42 59
42 60
42 64
42 68
42 69
43 45
43 47
43 48
43 49
43 51
43 57
43 58
43 60
43 61
43 65
43 66
43 67
43 68
43 69
44 46
44 49
44 50
44 52
44 54
44 57
44 59
44 62
44 63
44 64
44 65
44 66
44 67
44 69
45 47
45 48
45 49
45 50
45 53
45 55
45 56
45 58
45 59
45 60
45 63
45 67
45 68
46 48
46 50
46 51
46 52
46 54
46 55
46 56
46 58
46 60
46 61
46 62
46 64
46 65
46 68
47 49
47 50
47 53
47 58
47 60
47 63
47 64
47 67
47 68
48 50
48 51
48 55
48 57
48 60
48 67
49 52
49 54
49 55
49 57
49 63
49 64
49 66
49 67
50 53
50 56
50 57
50 58
50 59
50 64
50 67
50 69
51 52
51 53
51 56
51 58
51 61
51 63
51 64
51 66
51 68
52 56
52 59
52 61
52 62
52 63
52 65
52 66
52 67
52 69
53 54
53 55
53 58
53 59
53 61
53 64
53 66
53 67
53 68
53 69
54 55
54 57
54 59
54 61
54 63
54 64
54 69
55 56
55 60
55 62
55 63
55 65
55 66
55 67
55 68
56 57
56 58
56 62
56 64
56 65
56 66
56 67
57 58
57 59
57 60
57 63
57 64
57 67
58 62
58 65
58 66
58 67
58 69
59 61
59 62
59 64
59 67
60 61
60 63
60 64
60 67
60 68
61 62
61 64
61 69
62 63
62 65
62 66
62 68
63 65
63 66
63 67
64 66
64 68
64 69
65 66
65 67
65 68
66 68
66 69
68 69
24 18 32 56 4 40 51
62 9 29 17 69 13 20
45 28 63 0 34 7 15
25 37 50 30 22 55 48
36 66 12 10 21 16 64
38 59 46 31 41 3 5
65 47 23 53 57 26 11
35 8 67 44 61 42 68
6 49 52 58 2 27 54
1 60 14 33 19 39 43
